156566
53,45,44,79,61,69,13,65,60,68,77,25,35,70,20,47,23,30,18,4,21,43,67,58,52,7,82,27,78,5,14,24,41,54,22,11,2,56,42,59,46,80,71,33,48,50,34,29,1,37,15,32,26,6,55,16,10,39,73,57,76,8,31,74,81,3,49,62,64,38,40,51,19,75,66,12,17,36,0,9,28,63,72